NAME : kleinezf\2a3c4a.knd
COMMENT : 
TYPE : CVRP
DIMENSION : 201
EDGE_WEIGHT_TYPE : EUC_2D
CAPACITY : 10100
CAPACITY_VOL : 73
NODE_COORD_TYPE : TWOD_COORDS
NODE_COORD_SECTION
1 23452 56766
2 23136 55261
3 24513 55646
4 24476 55626
5 23396 55248
6 23658 55262
7 24931 56533
8 24641 55866
9 23976 58167
10 24941 56637
11 24029 55372
12 23138 55313
13 23292 55300
14 23138 55313
15 24111 55424
16 24882 56364
17 24752 56085
18 23610 55320
19 23925 55381
20 23123 55335
21 23174 55328
22 24228 55564
23 23212 55335
24 24240 55567
25 23433 55337
26 23979 58100
27 24595 55938
28 24595 55938
29 23903 55424
30 24174 55573
31 23903 55424
32 24174 55573
33 24661 57475
34 24853 56635
35 24853 56635
36 24418 55750
37 24455 57735
38 24287 57879
39 24802 56449
40 24802 56449
41 23403 55391
42 24825 56664
43 23984 55481
44 24144 55598
45 24144 55598
46 24699 57344
47 23769 55444
48 23019 55479
49 23881 55489
50 23950 55529
51 23278 55454
52 23970 55524
53 23950 55529
54 24512 55973
55 23735 55471
56 23503 55448
57 24190 57857
58 24223 57817
59 24003 55566
60 24264 55740
61 23121 55487
62 24472 57563
63 24038 57945
64 23489 55468
65 24272 55769
66 24359 55851
67 23160 55511
68 23683 55503
69 24565 56154
70 23518 55500
71 23829 55571
72 23237 55540
73 23237 55540
74 23856 55587
75 24110 55726
76 24025 55693
77 23785 57952
78 23541 55545
79 23410 55543
80 23714 55581
81 24018 55702
82 23169 55580
83 24266 55877
84 23892 55643
85 24184 55801
86 23767 55585
87 24281 55891
88 23117 55619
89 23601 55597
90 24214 55883
91 24214 55883
92 24111 55810
93 23907 57857
94 24214 55883
95 24377 56090
96 24085 55818
97 23835 55668
98 23088 55688
99 23088 55688
100 24574 56553
101 23902 55715
102 24255 55974
103 24488 56287
104 23578 55669
105 23841 55718
106 24563 56673
107 24335 56104
108 24272 56012
109 23775 55710
110 23775 55710
111 23909 55765
112 24267 56042
113 24069 55895
114 23190 55723
115 23494 55699
116 24339 57337
117 23190 55723
118 24145 55967
119 24501 56884
120 23266 55731
121 24187 56055
122 23562 55754
123 23571 55762
124 23842 57708
125 23913 55870
126 23288 55773
127 23818 55823
128 24382 57134
129 23997 55949
130 23997 55949
131 23453 55785
132 23978 55941
133 24090 56037
134 23629 55809
135 23706 55837
136 23600 55834
137 24229 56252
138 24229 56252
139 24229 56252
140 24040 56043
141 24190 56178
142 24040 56043
143 24068 56062
144 24130 56129
145 23963 55999
146 24120 56156
147 23443 55868
148 24169 56220
149 24184 56272
150 24180 57250
151 24064 56133
152 24180 57250
153 24180 57250
154 23879 56006
155 24021 56114
156 24284 57039
157 24021 56114
158 24043 56153
159 23987 56131
160 24078 56272
161 24065 56259
162 23939 56164
163 24119 57150
164 23026 57407
165 23021 56137
166 24064 57161
167 23991 56265
168 24144 56931
169 23216 56115
170 24139 56790
171 23660 56105
172 23726 56152
173 24053 56527
174 23163 56220
175 23458 57386
176 23883 56327
177 24004 56997
178 23683 57305
179 23789 57229
180 23141 56324
181 23240 57257
182 23305 56263
183 22965 56602
184 22987 56551
185 23931 56906
186 23288 56294
187 23427 56294
188 23884 56943
189 23259 56332
190 23296 56342
191 23694 57147
192 23220 56396
193 23630 57136
194 23645 56409
195 23570 56401
196 23148 56902
197 23520 57090
198 23253 57013
199 23435 56929
200 23339 56756
201 23339 56756
DEMAND_SECTION
1 0 0
2 30 0
3 60 0
4 90 0
5 50 0
6 50 0
7 50 0
8 50 0
9 20 0
10 50 0
11 20 0
12 70 0
13 50 0
14 50 0
15 50 0
16 60 0
17 70 0
18 90 0
19 90 0
20 10 0
21 50 0
22 20 0
23 30 0
24 10 0
25 70 0
26 90 0
27 30 0
28 70 0
29 70 0
30 90 0
31 60 0
32 80 0
33 10 0
34 60 0
35 60 0
36 50 0
37 70 0
38 60 0
39 80 0
40 10 0
41 80 0
42 20 0
43 60 0
44 40 0
45 70 0
46 40 0
47 80 0
48 80 0
49 20 0
50 70 0
51 30 0
52 60 0
53 10 0
54 30 0
55 80 0
56 30 0
57 20 0
58 50 0
59 40 0
60 70 0
61 30 0
62 70 0
63 40 0
64 20 0
65 60 0
66 20 0
67 90 0
68 30 0
69 30 0
70 50 0
71 60 0
72 40 0
73 70 0
74 40 0
75 50 0
76 50 0
77 50 0
78 40 0
79 80 0
80 60 0
81 80 0
82 70 0
83 10 0
84 40 0
85 50 0
86 70 0
87 30 0
88 70 0
89 20 0
90 10 0
91 30 0
92 90 0
93 10 0
94 30 0
95 90 0
96 60 0
97 90 0
98 90 0
99 80 0
100 80 0
101 40 0
102 80 0
103 30 0
104 50 0
105 40 0
106 20 0
107 70 0
108 30 0
109 20 0
110 20 0
111 30 0
112 60 0
113 60 0
114 40 0
115 20 0
116 40 0
117 70 0
118 60 0
119 30 0
120 70 0
121 20 0
122 60 0
123 30 0
124 40 0
125 80 0
126 50 0
127 10 0
128 10 0
129 80 0
130 20 0
131 20 0
132 30 0
133 30 0
134 30 0
135 80 0
136 10 0
137 70 0
138 50 0
139 20 0
140 60 0
141 30 0
142 50 0
143 30 0
144 30 0
145 10 0
146 70 0
147 20 0
148 20 0
149 20 0
150 70 0
151 20 0
152 50 0
153 10 0
154 50 0
155 20 0
156 30 0
157 40 0
158 50 0
159 90 0
160 60 0
161 90 0
162 90 0
163 30 0
164 80 0
165 60 0
166 40 0
167 40 0
168 50 0
169 70 0
170 70 0
171 70 0
172 60 0
173 70 0
174 60 0
175 70 0
176 50 0
177 70 0
178 90 0
179 10 0
180 50 0
181 50 0
182 90 0
183 80 0
184 50 0
185 60 0
186 10 0
187 60 0
188 10 0
189 70 0
190 50 0
191 80 0
192 90 0
193 10 0
194 70 0
195 40 0
196 50 0
197 40 0
198 10 0
199 40 0
200 80 0
201 70 0
PICKUP_SECTION
1 0 0
2 0 0
3 0 0
4 0 0
5 0 0
6 0 0
7 0 0
8 0 0
9 0 0
10 0 0
11 0 0
12 0 0
13 0 0
14 0 0
15 0 0
16 0 0
17 0 0
18 0 0
19 0 0
20 0 0
21 0 0
22 0 0
23 0 0
24 0 0
25 0 0
26 0 0
27 0 0
28 0 0
29 0 0
30 0 0
31 0 0
32 0 0
33 0 0
34 0 0
35 0 0
36 0 0
37 0 0
38 0 0
39 0 0
40 0 0
41 0 0
42 0 0
43 0 0
44 0 0
45 0 0
46 0 0
47 0 0
48 0 0
49 0 0
50 0 0
51 0 0
52 0 0
53 0 0
54 0 0
55 0 0
56 0 0
57 0 0
58 0 0
59 0 0
60 0 0
61 0 0
62 0 0
63 0 0
64 0 0
65 0 0
66 0 0
67 0 0
68 0 0
69 0 0
70 0 0
71 0 0
72 0 0
73 0 0
74 0 0
75 0 0
76 0 0
77 0 0
78 0 0
79 0 0
80 0 0
81 0 0
82 0 0
83 0 0
84 0 0
85 0 0
86 0 0
87 0 0
88 0 0
89 0 0
90 0 0
91 0 0
92 0 0
93 0 0
94 0 0
95 0 0
96 0 0
97 0 0
98 0 0
99 0 0
100 0 0
101 0 0
102 0 0
103 0 0
104 0 0
105 0 0
106 0 0
107 0 0
108 0 0
109 0 0
110 0 0
111 0 0
112 0 0
113 0 0
114 0 0
115 0 0
116 0 0
117 0 0
118 0 0
119 0 0
120 0 0
121 0 0
122 0 0
123 0 0
124 0 0
125 0 0
126 0 0
127 0 0
128 0 0
129 0 0
130 0 0
131 0 0
132 0 0
133 0 0
134 0 0
135 0 0
136 0 0
137 0 0
138 0 0
139 0 0
140 0 0
141 0 0
142 0 0
143 0 0
144 0 0
145 0 0
146 0 0
147 0 0
148 0 0
149 0 0
150 0 0
151 0 0
152 0 0
153 0 0
154 0 0
155 0 0
156 0 0
157 0 0
158 0 0
159 0 0
160 0 0
161 0 0
162 0 0
163 0 0
164 0 0
165 0 0
166 0 0
167 0 0
168 0 0
169 0 0
170 0 0
171 0 0
172 0 0
173 0 0
174 0 0
175 0 0
176 0 0
177 0 0
178 0 0
179 0 0
180 0 0
181 0 0
182 0 0
183 0 0
184 0 0
185 0 0
186 0 0
187 0 0
188 0 0
189 0 0
190 0 0
191 0 0
192 0 0
193 0 0
194 0 0
195 0 0
196 0 0
197 0 0
198 0 0
199 0 0
200 0 0
201 0 0
TIME_WINDOW_SECTION
2  7:00 18:00
3  7:00 18:00
4  7:00 18:00
5  7:00 18:00
6  7:00 18:00
7  7:00 18:00
8  7:00 18:00
9  7:00 18:00
10  7:00 18:00
11  7:00 18:00
12  7:00 18:00
13  7:00 18:00
14  7:00 18:00
15  7:00 18:00
16  7:00 18:00
17  7:00 18:00
18  7:00 18:00
19  7:00 18:00
20  7:00 18:00
21  7:00 18:00
22  7:00 18:00
23  7:00 18:00
24  7:00 18:00
25  7:00 18:00
26  7:00 18:00
27  7:00 18:00
28  7:00 18:00
29  7:00 18:00
30  7:00 18:00
31  7:00 18:00
32  7:00 18:00
33  7:00 18:00
34  7:00 18:00
35  7:00 18:00
36  7:00 18:00
37  7:00 18:00
38  7:00 18:00
39  7:00 18:00
40  7:00 18:00
41  7:00 18:00
42  7:00 18:00
43  7:00 18:00
44  7:00 18:00
45  7:00 18:00
46  7:00 18:00
47  7:00 18:00
48  7:00 18:00
49  7:00 18:00
50  7:00 18:00
51  7:00 18:00
52  7:00 18:00
53  7:00 18:00
54  7:00 18:00
55  7:00 18:00
56  7:00 18:00
57  7:00 18:00
58  7:00 18:00
59  7:00 18:00
60  7:00 18:00
61  7:00 18:00
62  7:00 18:00
63  7:00 18:00
64  7:00 18:00
65  7:00 18:00
66  7:00 18:00
67  7:00 18:00
68  7:00 18:00
69  7:00 18:00
70  7:00 18:00
71  7:00 18:00
72  7:00 18:00
73  7:00 18:00
74  7:00 18:00
75  7:00 18:00
76  7:00 18:00
77  7:00 18:00
78  7:00 18:00
79  7:00 18:00
80  7:00 18:00
81  7:00 18:00
82  7:00 18:00
83  7:00 18:00
84  7:00 18:00
85  7:00 18:00
86  7:00 18:00
87  7:00 18:00
88  7:00 18:00
89  7:00 18:00
90  7:00 18:00
91  7:00 18:00
92  7:00 18:00
93  7:00 18:00
94  7:00 18:00
95  7:00 18:00
96  7:00 18:00
97  7:00 18:00
98  7:00 18:00
99  7:00 18:00
100  7:00 18:00
101  7:00 18:00
102  7:00 18:00
103  7:00 18:00
104  7:00 18:00
105  7:00 18:00
106  7:00 18:00
107  7:00 18:00
108  7:00 18:00
109  7:00 18:00
110  7:00 18:00
111  7:00 18:00
112  7:00 18:00
113  7:00 18:00
114  7:00 18:00
115  7:00 18:00
116  7:00 18:00
117  7:00 18:00
118  7:00 18:00
119  7:00 18:00
120  7:00 18:00
121  7:00 18:00
122  7:00 18:00
123  7:00 18:00
124  7:00 18:00
125  7:00 18:00
126  7:00 18:00
127  7:00 18:00
128  7:00 18:00
129  7:00 18:00
130  7:00 18:00
131  7:00 18:00
132  7:00 18:00
133  7:00 18:00
134  7:00 18:00
135  7:00 18:00
136  7:00 18:00
137  7:00 18:00
138  7:00 18:00
139  7:00 18:00
140  7:00 18:00
141  7:00 18:00
142  7:00 18:00
143  7:00 18:00
144  7:00 18:00
145  7:00 18:00
146  7:00 18:00
147  7:00 18:00
148  7:00 18:00
149  7:00 18:00
150  7:00 18:00
151  7:00 18:00
152  7:00 18:00
153  7:00 18:00
154  7:00 18:00
155  7:00 18:00
156  7:00 18:00
157  7:00 18:00
158  7:00 18:00
159  7:00 18:00
160  7:00 18:00
161  7:00 18:00
162  7:00 18:00
163  7:00 18:00
164  7:00 18:00
165  7:00 18:00
166  7:00 18:00
167  7:00 18:00
168  7:00 18:00
169  7:00 18:00
170  7:00 18:00
171  7:00 18:00
172  7:00 18:00
173  7:00 18:00
174  7:00 18:00
175  7:00 18:00
176  7:00 18:00
177  7:00 18:00
178  7:00 18:00
179  7:00 18:00
180  7:00 18:00
181  7:00 18:00
182  7:00 18:00
183  7:00 18:00
184  7:00 18:00
185  7:00 18:00
186  7:00 18:00
187  7:00 18:00
188  7:00 18:00
189  7:00 18:00
190  7:00 18:00
191  7:00 18:00
192  7:00 18:00
193  7:00 18:00
194  7:00 18:00
195  7:00 18:00
196  7:00 18:00
197  7:00 18:00
198  7:00 18:00
199  7:00 18:00
200  7:00 18:00
201  7:00 18:00
STANDTIME_SECTION
2 5
3 5
4 5
5 5
6 5
7 5
8 5
9 5
10 5
11 5
12 5
13 5
14 5
15 5
16 5
17 5
18 5
19 5
20 5
21 5
22 5
23 5
24 5
25 5
26 5
27 5
28 5
29 5
30 5
31 5
32 5
33 5
34 5
35 5
36 5
37 5
38 5
39 5
40 5
41 5
42 5
43 5
44 5
45 5
46 5
47 5
48 5
49 5
50 5
51 5
52 5
53 5
54 5
55 5
56 5
57 5
58 5
59 5
60 5
61 5
62 5
63 5
64 5
65 5
66 5
67 5
68 5
69 5
70 5
71 5
72 5
73 5
74 5
75 5
76 5
77 5
78 5
79 5
80 5
81 5
82 5
83 5
84 5
85 5
86 5
87 5
88 5
89 5
90 5
91 5
92 5
93 5
94 5
95 5
96 5
97 5
98 5
99 5
100 5
101 5
102 5
103 5
104 5
105 5
106 5
107 5
108 5
109 5
110 5
111 5
112 5
113 5
114 5
115 5
116 5
117 5
118 5
119 5
120 5
121 5
122 5
123 5
124 5
125 5
126 5
127 5
128 5
129 5
130 5
131 5
132 5
133 5
134 5
135 5
136 5
137 5
138 5
139 5
140 5
141 5
142 5
143 5
144 5
145 5
146 5
147 5
148 5
149 5
150 5
151 5
152 5
153 5
154 5
155 5
156 5
157 5
158 5
159 5
160 5
161 5
162 5
163 5
164 5
165 5
166 5
167 5
168 5
169 5
170 5
171 5
172 5
173 5
174 5
175 5
176 5
177 5
178 5
179 5
180 5
181 5
182 5
183 5
184 5
185 5
186 5
187 5
188 5
189 5
190 5
191 5
192 5
193 5
194 5
195 5
196 5
197 5
198 5
199 5
200 5
201 5
DEPOT_SECTION
1
-1
EOF
